
<<< setup


<<< generate

Version identifier: 12.10.0.0 | 2019-11-26 | 843d4de2ae
CPXPARAM_TimeLimit                               1200
Tried aggregator 2 times.
MIP Presolve eliminated 331399 rows and 190226 columns.
MIP Presolve modified 26850 coefficients.
Aggregator did 203 substitutions.
Reduced MIP has 4658 rows, 4691 columns, and 26924 nonzeros.
Reduced MIP has 4671 binaries, 0 generals, 0 SOSs, and 0 indicators.
Presolve time = 0.39 sec. (236.85 ticks)
Found incumbent of value 0.000000 after 0.61 sec. (309.63 ticks)
Probing fixed 234 vars, tightened 0 bounds.
Probing time = 0.11 sec. (31.07 ticks)
Cover probing fixed 1 vars, tightened 0 bounds.
Tried aggregator 2 times.
Detecting symmetries...
MIP Presolve eliminated 210 rows and 235 columns.
Aggregator did 1 substitutions.
Reduced MIP has 4447 rows, 4455 columns, and 25545 nonzeros.
Reduced MIP has 4435 binaries, 0 generals, 0 SOSs, and 0 indicators.
Presolve time = 0.03 sec. (19.90 ticks)
Probing fixed 13 vars, tightened 0 bounds.
Probing time = 0.09 sec. (30.96 ticks)
Clique table members: 14997.
MIP emphasis: balance optimality and feasibility.
MIP search method: dynamic search.
Parallel mode: deterministic, using up to 4 threads.
Root relaxation solution time = 0.03 sec. (32.71 ticks)

        Nodes                                         Cuts/
   Node  Left     Objective  IInf  Best Integer    Best Bound    ItCnt     Gap

*     0+    0                            0.0000    44704.0000              --- 
      0     0    44704.0000   297        0.0000    44704.0000      699     --- 
      0     0    44704.0000   297        0.0000      Cuts: 10      776     --- 
      0     0    44704.0000   297        0.0000     Cuts: 572     1352     --- 
      0     0    44704.0000   297        0.0000      Cuts: 47     1437     --- 
      0     0    44704.0000   297        0.0000     Cuts: 438     1969     --- 
*     0+    0                         1621.0000    44704.0000              --- 
      0     0        cutoff           1621.0000    44704.0000     1969     --- 
      0     2    44704.0000    95     1621.0000    44704.0000     1969     --- 
Elapsed time = 4.17 sec. (2370.07 ticks, tree = 0.02 MB, solutions = 2)
*     3+    1                        14787.0000    44704.0000           202.32%
      9    10    44704.0000   277    14787.0000    44704.0000     5187  202.32%
     28    24    44704.0000   246    14787.0000    44704.0000    10472  202.32%
     70    49    44704.0000   161    14787.0000    44704.0000    15958  202.32%
     98    58    44704.0000   275    14787.0000    44704.0000    21230  202.32%
    104    57    44704.0000   345    14787.0000    44704.0000    25166  202.32%
    170    64    44704.0000   224    14787.0000    44704.0000    32136  202.32%
    284    68    infeasible          14787.0000    44704.0000    37333  202.32%
    352    75    44704.0000   192    14787.0000    44704.0000    41759  202.32%
    378    79    infeasible          14787.0000    44704.0000    47780  202.32%
    556    89    44704.0000   192    14787.0000    44704.0000    59843  202.32%
Elapsed time = 9.72 sec. (5584.14 ticks, tree = 1.07 MB, solutions = 6)
    793    97    44704.0000   224    14787.0000    44704.0000    74771  202.32%
   1062   140    44704.0000    99    14787.0000    44704.0000    92593  202.32%
*  1077+  139                        42056.0000    44704.0000             6.30%
   2091   601    infeasible          42056.0000    44704.0000   110276    6.30%
   3209   562    44704.0000    48    42056.0000    44704.0000   119387    6.30%
   4842   566    44704.0000    62    42056.0000    44704.0000   130660    6.30%

Performing restart 1

Repeating presolve.
Tried aggregator 1 time.
MIP Presolve eliminated 60 rows and 21 columns.
MIP Presolve modified 3289 coefficients.
Reduced MIP has 4387 rows, 4434 columns, and 22300 nonzeros.
Reduced MIP has 4414 binaries, 0 generals, 0 SOSs, and 0 indicators.
Presolve time = 0.03 sec. (21.84 ticks)
Tried aggregator 1 time.
MIP Presolve eliminated 1 rows and 1 columns.
Reduced MIP has 4386 rows, 4433 columns, and 22294 nonzeros.
Reduced MIP has 4413 binaries, 0 generals, 0 SOSs, and 0 indicators.
Presolve time = 0.02 sec. (16.43 ticks)
Represolve time = 0.39 sec. (196.13 ticks)
   5180     0    44704.0000   305    42056.0000      Cuts: 90   135057    6.30%
   5180     0    44704.0000   305    42056.0000     Cuts: 242   135776    6.30%
   5180     0    44704.0000   305    42056.0000      Cuts: 59   136029    6.30%
   5180     0    44704.0000   305    42056.0000     Cuts: 287   136366    6.30%
   5180     0    44704.0000   305    42056.0000      Cuts: 36   136440    6.30%
   5180     0    44704.0000   305    42056.0000     Cuts: 293   136844    6.30%
   5180     0    44704.0000   305    42056.0000      Cuts: 54   137022    6.30%
   5180     0    44704.0000   305    42056.0000     Cuts: 349   137448    6.30%
   5180     2    44704.0000   113    42056.0000    44704.0000   137448    6.30%
   5187     8    44704.0000   221    42056.0000    44704.0000   139835    6.30%
   5200    22    44704.0000   187    42056.0000    44704.0000   142779    6.30%
   5226    39    44704.0000   168    42056.0000    44704.0000   149160    6.30%
   5307    72    infeasible          42056.0000    44704.0000   154406    6.30%
Elapsed time = 37.45 sec. (23503.90 ticks, tree = 1.23 MB, solutions = 7)
   5363   109    44704.0000   249    42056.0000    44704.0000   161373    6.30%
   5422   139    44704.0000   227    42056.0000    44704.0000   163861    6.30%
   5441   169    infeasible          42056.0000    44704.0000   167077    6.30%
   5460   169    44704.0000   171    42056.0000    44704.0000   180277    6.30%
   5541   206    44704.0000   174    42056.0000    44704.0000   183717    6.30%
   5634   234    44704.0000   176    42056.0000    44704.0000   190488    6.30%
   5793   266    44704.0000   158    42056.0000    44704.0000   205730    6.30%
   5863   323    44704.0000   161    42056.0000    44704.0000   214293    6.30%
   5922   380    44704.0000   180    42056.0000    44704.0000   233960    6.30%
   6095   462    44704.0000   149    42056.0000    44704.0000   243321    6.30%
Elapsed time = 50.99 sec. (33174.12 ticks, tree = 13.27 MB, solutions = 7)
   6430   556    44704.0000   178    42056.0000    44704.0000   252765    6.30%
   6745   698    44704.0000   182    42056.0000    44704.0000   266496    6.30%
   6900   840    44704.0000   187    42056.0000    44704.0000   277677    6.30%
   7344  1003    44704.0000   146    42056.0000    44704.0000   292059    6.30%
   7511  1062    44704.0000   164    42056.0000    44704.0000   301135    6.30%
   7543  1101    44704.0000   165    42056.0000    44704.0000   310926    6.30%
   7724  1111    44704.0000   146    42056.0000    44704.0000   315076    6.30%
   8066  1161    44704.0000   150    42056.0000    44704.0000   336470    6.30%
   8218  1191    44704.0000   183    42056.0000    44704.0000   345062    6.30%
   8241  1255    44704.0000   248    42056.0000    44704.0000   352017    6.30%
Elapsed time = 64.88 sec. (42908.38 ticks, tree = 40.83 MB, solutions = 7)
   8338  1278    44704.0000   176    42056.0000    44704.0000   358444    6.30%
   8624  1311    44704.0000   223    42056.0000    44704.0000   364972    6.30%
   8912  1476    44704.0000   160    42056.0000    44704.0000   393087    6.30%
   8972  1518    infeasible          42056.0000    44704.0000   399572    6.30%
   9184  1552    44704.0000   170    42056.0000    44704.0000   402926    6.30%
   9551  1678    infeasible          42056.0000    44704.0000   414307    6.30%
   9749  1799    44704.0000   164    42056.0000    44704.0000   434224    6.30%
   9774  1858    44704.0000   147    42056.0000    44704.0000   446828    6.30%
   9918  1894    44704.0000   150    42056.0000    44704.0000   451326    6.30%
  10495  1990    44704.0000   175    42056.0000    44704.0000   460928    6.30%
Elapsed time = 78.84 sec. (52600.10 ticks, tree = 66.72 MB, solutions = 7)
  10754  2204    infeasible          42056.0000    44704.0000   489489    6.30%
  10799  2224    infeasible          42056.0000    44704.0000   498608    6.30%
  10820  2204    infeasible          42056.0000    44704.0000   501528    6.30%
  10839  2195    infeasible          42056.0000    44704.0000   507011    6.30%
  10863  2190    infeasible          42056.0000    44704.0000   508790    6.30%
  10893  2182    infeasible          42056.0000    44704.0000   527279    6.30%
  10919  2192    44704.0000   187    42056.0000    44704.0000   528245    6.30%
  11070  2209    44704.0000   164    42056.0000    44704.0000   534845    6.30%
  11228  2285    44704.0000   129    42056.0000    44704.0000   545392    6.30%
  11327  2327    infeasible          42056.0000    44704.0000   567884    6.30%
Elapsed time = 93.67 sec. (62493.26 ticks, tree = 78.81 MB, solutions = 7)
  11353  2357    infeasible          42056.0000    44704.0000   579939    6.30%
  11410  2374    44704.0000   204    42056.0000    44704.0000   582698    6.30%
  11705  2408    44704.0000   220    42056.0000    44704.0000   587052    6.30%
  11873  2511    44704.0000   208    42056.0000    44704.0000   601823    6.30%
  11995  2651    infeasible          42056.0000    44704.0000   624840    6.30%
  12040  2701    44704.0000   179    42056.0000    44704.0000   632618    6.30%
  12099  2737    44704.0000   151    42056.0000    44704.0000   634406    6.30%
  12255  2786    44704.0000   213    42056.0000    44704.0000   641343    6.30%
  12312  2779    44704.0000   203    42056.0000    44704.0000   651941    6.30%
  12347  2828    44704.0000   190    42056.0000    44704.0000   658158    6.30%
Elapsed time = 107.64 sec. (72177.36 ticks, tree = 96.92 MB, solutions = 7)
  12374  2855    44704.0000   125    42056.0000    44704.0000   658789    6.30%
  12433  2916    44704.0000   175    42056.0000    44704.0000   671181    6.30%
  12568  2942    44704.0000   181    42056.0000    44704.0000   673851    6.30%
  12715  3045    44704.0000   143    42056.0000    44704.0000   685573    6.30%
  12817  3051    44704.0000   212    42056.0000    44704.0000   702791    6.30%
  12833  3171    44704.0000   191    42056.0000    44704.0000   721465    6.30%
  12840  3183    44704.0000   264    42056.0000    44704.0000   738731    6.30%
  12850  3220    44704.0000   138    42056.0000    44704.0000   757628    6.30%
  12862  3227    44704.0000   245    42056.0000    44704.0000   759324    6.30%
  12878  3246    44704.0000   273    42056.0000    44704.0000   764102    6.30%
Elapsed time = 121.42 sec. (82077.68 ticks, tree = 111.77 MB, solutions = 7)
  12974  3259    44704.0000   146    42056.0000    44704.0000   769978    6.30%
  13144  3372    44704.0000   179    42056.0000    44704.0000   779247    6.30%
  13311  3366    44704.0000   256    42056.0000    44704.0000   785855    6.30%
  13449  3457    infeasible          42056.0000    44704.0000   792538    6.30%
  13553  3552    44704.0000   198    42056.0000    44704.0000   805335    6.30%
  13585  3618    44704.0000   193    42056.0000    44704.0000   824762    6.30%
  13632  3701    44704.0000   241    42056.0000    44704.0000   841574    6.30%
  13768  3722    44704.0000   191    42056.0000    44704.0000   846533    6.30%
  13872  3752    44704.0000   201    42056.0000    44704.0000   847490    6.30%
  14011  3806    44704.0000   200    42056.0000    44704.0000   865123    6.30%
Elapsed time = 134.61 sec. (91702.32 ticks, tree = 130.21 MB, solutions = 7)
  14159  3894    44704.0000   163    42056.0000    44704.0000   874386    6.30%
  14315  3983    44704.0000   167    42056.0000    44704.0000   891026    6.30%
  14433  4014    infeasible          42056.0000    44704.0000   907426    6.30%
  14465  4125    44704.0000   132    42056.0000    44704.0000   938943    6.30%
  14478  4119    44704.0000   197    42056.0000    44704.0000   937998    6.30%
  14582  4144    44704.0000   224    42056.0000    44704.0000   952061    6.30%
  14748  4153    44704.0000   218    42056.0000    44704.0000   956781    6.30%
  14947  4271    44704.0000   140    42056.0000    44704.0000   971444    6.30%
  15092  4355    44704.0000   126    42056.0000    44704.0000   983352    6.30%
  15299  4532    infeasible          42056.0000    44704.0000  1039878    6.30%
Elapsed time = 152.25 sec. (104185.94 ticks, tree = 157.07 MB, solutions = 7)
  15768  4594    44704.0000   172    42056.0000    44704.0000  1069192    6.30%
  16084  4854    44704.0000   183    42056.0000    44704.0000  1119872    6.30%
  16735  5158    44704.0000   210    42056.0000    44704.0000  1159142    6.30%
  16880  5316    44704.0000   169    42056.0000    44704.0000  1211207    6.30%
  17494  5532    44704.0000   227    42056.0000    44704.0000  1250349    6.30%
  17727  5725    44704.0000   221    42056.0000    44704.0000  1289305    6.30%
  18080  5796    44704.0000   190    42056.0000    44704.0000  1320051    6.30%
  18579  5968    44704.0000   167    42056.0000    44704.0000  1371331    6.30%
  18694  6073    44704.0000   208    42056.0000    44704.0000  1424518    6.30%
  18872  6167    44704.0000   194    42056.0000    44704.0000  1470097    6.30%
Elapsed time = 205.88 sec. (142592.60 ticks, tree = 217.99 MB, solutions = 7)
  19491  6397    44704.0000   149    42056.0000    44704.0000  1522123    6.30%
  19884  6541    44704.0000   223    42056.0000    44704.0000  1550860    6.30%
  20012  6720    44704.0000   198    42056.0000    44704.0000  1618343    6.30%
  20417  6920    44704.0000   188    42056.0000    44704.0000  1667283    6.30%
  20769  6966    44704.0000   197    42056.0000    44704.0000  1714318    6.30%
  20947  7109    44704.0000   193    42056.0000    44704.0000  1755316    6.30%
  21483  7297    44704.0000   201    42056.0000    44704.0000  1812566    6.30%
  22169  7587    44704.0000   170    42056.0000    44704.0000  1873139    6.30%
  22488  7715    44704.0000   227    42056.0000    44704.0000  1922708    6.30%
  22834  8016    44704.0000   181    42056.0000    44704.0000  1971322    6.30%
Elapsed time = 260.55 sec. (180910.97 ticks, tree = 288.94 MB, solutions = 7)
  23666  8221    44704.0000   157    42056.0000    44704.0000  1995545    6.30%
  23983  8857    infeasible          42056.0000    44704.0000  2076093    6.30%
  24281  8966    44704.0000   179    42056.0000    44704.0000  2096224    6.30%
* 24521+ 8834                        44704.0000    44704.0000             0.00%
  24613  8978    infeasible          44704.0000    44704.0000  2107388    0.00%

GUB cover cuts applied:  12
Clique cuts applied:  25
Cover cuts applied:  9
Implied bound cuts applied:  537
Flow cuts applied:  22
Mixed integer rounding cuts applied:  28
Zero-half cuts applied:  3

Root node processing (before b&c):
  Real time             =    4.19 sec. (2367.25 ticks)
Parallel b&c, 4 threads:
  Real time             =  279.92 sec. (195358.01 ticks)
  Sync time (average)   =   16.98 sec.
  Wait time (average)   =    0.01 sec.
                          ------------
Total (root+branch&cut) =  284.11 sec. (197725.26 ticks)

<<< solve


OBJECTIVE: 44704

<<< post process


<<< done

